100
128
2
27
4
4
32
17
34
30
3
22
35
19
43
14
12
27
35
1
26
26
44
16
42
58
10
11
52
45
8
54
2
50
50
55
35
44
53
12
32
11
47
10
53
1
4
22
31
59
38
46
58
44
40
2
62
47
61
62
9
50
50
7
11
52
43
63
9
55
59
63
44
44
40
6
2
19
51
61
27
7
27
32
10
16
28
33
59
46
4
54
40
45
28
54
44
64
30
43
35
64